(set-logic QF_S)
(declare-fun var0 () String)
(declare-fun var1 () Int)
(declare-fun var2 () Bool)
(declare-fun var3 () String)
(declare-fun var4 () Int)
(declare-fun var5 () Bool)
(declare-fun var6 () String)
(declare-fun var7 () Int)
(declare-fun var8 () Bool)
(assert (str.prefixof (str.substr var6 var7 var1) (str.replace var3 "n:h?8&/f}c" var3)))
(assert (> (str.len var6) (str.indexof var6 var3 var1)))
(assert (str.prefixof (str.substr (str.substr var3 4 var7) (str.len var0) (str.indexof var6 "g[[_u8Np:s" var7)) (str.replace var0 var6 var6)))
(assert (> (str.indexof var3 var6 var1) (str.indexof "Q)h0Ia^43U" var0 var1)))
(check-sat)